137.0,460.0,187.0,84.0
137.0,458.0,189.0,85.0
149.0,455.0,185.0,88.0
150.0,453.0,186.0,88.0
150.0,451.0,189.0,90.0
157.0,451.0,184.0,88.0
158.0,451.0,184.0,87.0
159.0,450.0,184.0,88.0
161.0,448.0,184.0,88.0
162.0,446.0,185.0,88.0
163.0,444.0,188.0,90.0
174.0,446.0,177.0,84.0
174.0,446.0,177.0,84.0
175.0,444.0,177.0,84.0
176.0,442.0,177.0,84.0
178.0,440.0,176.0,84.0
180.0,438.0,176.0,84.0
181.0,436.0,176.0,84.0
181.0,436.0,176.0,84.0
183.0,434.0,176.0,84.0
185.0,431.0,176.0,84.0
187.0,429.0,176.0,84.0
189.0,427.0,176.0,84.0
192.0,425.0,176.0,84.0
192.0,425.0,176.0,84.0
194.0,422.0,176.0,84.0
196.0,420.0,176.0,83.0
198.0,418.0,175.0,83.0
199.0,415.0,175.0,83.0
201.0,413.0,175.0,83.0
201.0,413.0,175.0,83.0
202.0,411.0,175.0,83.0
203.0,409.0,175.0,83.0
204.0,407.0,175.0,83.0
204.0,405.0,175.0,83.0
205.0,403.0,175.0,83.0
205.0,403.0,176.0,84.0
205.0,402.0,176.0,84.0
205.0,400.0,176.0,84.0
205.0,399.0,176.0,84.0
206.0,397.0,177.0,84.0
206.0,396.0,177.0,84.0
206.0,396.0,177.0,84.0
207.0,395.0,178.0,84.0
207.0,394.0,179.0,85.0
208.0,393.0,181.0,86.0
208.0,392.0,184.0,88.0
208.0,390.0,188.0,89.0
208.0,390.0,188.0,89.0
230.0,393.0,171.0,83.0
232.0,393.0,170.0,82.0
235.0,392.0,172.0,83.0
239.0,393.0,171.0,83.0
243.0,393.0,172.0,84.0
238.0,392.0,178.0,87.0
251.0,394.0,168.0,82.0
256.0,394.0,168.0,82.0
257.0,393.0,173.0,84.0
262.0,392.0,173.0,84.0
266.0,392.0,186.0,84.0
266.0,392.0,186.0,84.0
270.0,392.0,188.0,85.0
276.0,392.0,187.0,85.0
281.0,390.0,186.0,84.0
288.0,389.0,183.0,83.0
293.0,388.0,181.0,82.0
293.0,388.0,181.0,82.0
297.0,387.0,180.0,81.0
302.0,386.0,179.0,81.0
307.0,385.0,177.0,80.0
312.0,384.0,174.0,79.0
315.0,384.0,173.0,78.0
315.0,384.0,172.0,78.0
323.0,372.0,154.0,95.0
323.0,370.0,155.0,95.0
327.0,370.0,149.0,92.0
327.0,367.0,150.0,92.0
329.0,366.0,155.0,91.0
329.0,366.0,155.0,91.0
328.0,365.0,155.0,91.0
327.0,363.0,156.0,92.0
331.0,363.0,152.0,89.0
331.0,363.0,151.0,89.0
332.0,362.0,150.0,88.0
332.0,362.0,149.0,87.0
332.0,360.0,148.0,87.0
331.0,360.0,148.0,87.0
331.0,359.0,147.0,86.0
330.0,359.0,146.0,86.0
329.0,358.0,146.0,86.0
329.0,358.0,146.0,86.0
330.0,358.0,145.0,85.0
329.0,357.0,145.0,85.0
330.0,357.0,143.0,84.0
331.0,357.0,142.0,83.0
332.0,357.0,141.0,83.0
332.0,357.0,149.0,110.0
330.0,357.0,151.0,111.0
328.0,357.0,152.0,112.0
321.0,355.0,156.0,115.0
313.0,355.0,163.0,121.0
304.0,353.0,179.0,124.0
304.0,353.0,179.0,124.0
294.0,351.0,185.0,128.0
281.0,350.0,194.0,135.0
265.0,347.0,206.0,143.0
246.0,346.0,220.0,152.0
224.0,343.0,236.0,164.0
224.0,343.0,236.0,164.0
201.0,341.0,254.0,176.0
176.0,338.0,274.0,190.0
149.0,335.0,294.0,204.0
119.0,330.0,320.0,221.0
106.0,327.0,334.0,232.0
106.0,327.0,334.0,232.0
108.0,326.0,341.0,236.0
109.0,324.0,349.0,242.0
112.0,325.0,353.0,244.0
116.0,326.0,356.0,247.0
118.0,327.0,360.0,249.0
118.0,327.0,360.0,249.0
120.0,328.0,363.0,251.0
125.0,329.0,363.0,252.0
124.0,330.0,371.0,257.0
125.0,331.0,375.0,260.0
127.0,331.0,376.0,261.0
127.0,331.0,376.0,261.0
129.0,332.0,378.0,262.0
129.0,334.0,379.0,262.0
129.0,334.0,382.0,265.0
129.0,337.0,383.0,265.0
128.0,338.0,388.0,269.0
128.0,338.0,388.0,269.0
126.0,338.0,393.0,272.0
123.0,339.0,397.0,275.0
122.0,339.0,400.0,277.0
186.0,352.0,323.0,231.0
187.0,353.0,319.0,228.0
186.0,350.0,325.0,233.0
188.0,348.0,335.0,233.0
189.0,346.0,336.0,234.0
191.0,344.0,336.0,234.0
191.0,341.0,339.0,236.0
191.0,342.0,335.0,233.0
191.0,342.0,335.0,233.0
191.0,341.0,335.0,233.0
191.0,341.0,332.0,231.0
189.0,340.0,332.0,231.0
188.0,340.0,330.0,230.0
187.0,338.0,330.0,229.0
187.0,338.0,330.0,229.0
186.0,337.0,329.0,229.0
184.0,335.0,329.0,229.0
183.0,334.0,328.0,228.0
181.0,313.0,352.0,247.0
179.0,311.0,352.0,247.0
179.0,311.0,352.0,247.0
177.0,309.0,352.0,247.0
175.0,307.0,352.0,247.0
174.0,304.0,352.0,247.0
173.0,301.0,352.0,247.0
171.0,299.0,352.0,247.0
171.0,299.0,352.0,247.0
170.0,296.0,353.0,247.0
169.0,293.0,352.0,247.0
168.0,290.0,352.0,247.0
167.0,286.0,352.0,247.0
165.0,282.0,353.0,248.0
165.0,282.0,353.0,248.0
165.0,279.0,353.0,248.0
164.0,276.0,353.0,248.0
164.0,273.0,353.0,248.0
164.0,269.0,353.0,248.0
164.0,266.0,353.0,248.0
164.0,266.0,353.0,248.0
164.0,264.0,352.0,247.0
164.0,261.0,353.0,247.0
164.0,258.0,352.0,247.0
164.0,255.0,352.0,247.0
165.0,253.0,352.0,247.0
165.0,253.0,352.0,247.0
165.0,251.0,352.0,247.0
165.0,249.0,352.0,247.0
166.0,247.0,352.0,247.0
166.0,245.0,352.0,247.0
167.0,243.0,352.0,247.0
167.0,243.0,352.0,247.0
167.0,241.0,352.0,247.0
168.0,239.0,352.0,247.0
168.0,238.0,352.0,247.0
169.0,236.0,352.0,247.0
170.0,235.0,352.0,247.0
170.0,235.0,352.0,247.0
170.0,234.0,352.0,247.0
170.0,233.0,352.0,247.0
171.0,232.0,352.0,247.0
172.0,231.0,352.0,247.0
172.0,230.0,352.0,247.0
172.0,230.0,352.0,247.0
173.0,230.0,352.0,247.0
173.0,229.0,352.0,247.0
173.0,229.0,352.0,247.0
174.0,229.0,353.0,247.0
174.0,229.0,352.0,247.0
174.0,229.0,352.0,247.0
175.0,229.0,352.0,247.0
175.0,229.0,352.0,247.0
176.0,229.0,352.0,247.0
176.0,229.0,352.0,247.0
177.0,229.0,352.0,247.0
177.0,229.0,352.0,247.0
177.0,230.0,352.0,247.0
178.0,230.0,352.0,247.0
178.0,230.0,352.0,247.0
179.0,231.0,352.0,247.0
179.0,231.0,352.0,247.0
179.0,231.0,352.0,247.0
180.0,232.0,352.0,247.0
180.0,233.0,352.0,247.0
180.0,233.0,352.0,247.0
181.0,234.0,352.0,247.0
181.0,235.0,352.0,247.0
181.0,235.0,352.0,247.0
181.0,236.0,352.0,247.0
181.0,237.0,351.0,247.0
181.0,237.0,352.0,247.0
181.0,238.0,352.0,247.0
181.0,238.0,353.0,247.0
181.0,238.0,353.0,247.0
181.0,239.0,353.0,248.0
180.0,240.0,353.0,247.0
180.0,240.0,353.0,247.0
180.0,240.0,353.0,248.0
180.0,241.0,353.0,248.0
180.0,241.0,353.0,248.0
179.0,241.0,353.0,248.0
179.0,242.0,353.0,248.0
178.0,242.0,354.0,248.0
178.0,242.0,354.0,248.0
177.0,242.0,354.0,249.0
177.0,242.0,354.0,249.0
176.0,242.0,354.0,249.0
176.0,241.0,354.0,249.0
175.0,241.0,354.0,249.0
174.0,240.0,355.0,249.0
174.0,239.0,355.0,249.0
174.0,239.0,355.0,249.0
174.0,239.0,355.0,249.0
173.0,237.0,355.0,249.0
173.0,236.0,355.0,249.0
172.0,236.0,355.0,249.0
171.0,234.0,355.0,249.0
171.0,234.0,355.0,249.0
171.0,233.0,354.0,249.0
170.0,232.0,355.0,249.0
169.0,230.0,355.0,249.0
169.0,229.0,355.0,249.0
168.0,228.0,354.0,248.0
168.0,228.0,354.0,248.0
167.0,226.0,354.0,248.0
167.0,225.0,354.0,248.0
166.0,224.0,354.0,248.0
165.0,222.0,354.0,248.0
165.0,221.0,353.0,248.0
165.0,221.0,353.0,248.0
164.0,220.0,354.0,248.0
163.0,219.0,354.0,248.0
162.0,218.0,354.0,248.0
161.0,217.0,354.0,248.0
161.0,216.0,353.0,248.0
161.0,216.0,353.0,248.0
160.0,215.0,353.0,248.0
160.0,215.0,353.0,248.0
159.0,215.0,353.0,248.0
159.0,214.0,352.0,247.0
158.0,214.0,353.0,247.0
158.0,214.0,353.0,247.0
157.0,215.0,353.0,248.0
156.0,215.0,353.0,247.0
156.0,215.0,353.0,247.0
155.0,216.0,353.0,247.0
155.0,217.0,323.0,247.0
155.0,217.0,323.0,247.0
155.0,218.0,322.0,246.0
153.0,220.0,323.0,247.0
153.0,222.0,323.0,247.0
153.0,224.0,323.0,247.0
152.0,226.0,322.0,246.0
159.0,236.0,263.0,226.0
159.0,236.0,263.0,226.0
159.0,238.0,263.0,226.0
157.0,241.0,263.0,226.0
156.0,245.0,263.0,226.0
208.0,251.0,198.0,217.0
208.0,251.0,198.0,217.0
208.0,255.0,197.0,216.0
206.0,258.0,198.0,216.0
203.0,261.0,199.0,218.0
202.0,266.0,198.0,218.0
201.0,271.0,198.0,217.0
201.0,271.0,198.0,217.0
200.0,277.0,198.0,217.0
198.0,283.0,198.0,217.0
197.0,289.0,198.0,217.0
195.0,295.0,198.0,217.0
244.0,284.0,151.0,219.0
244.0,284.0,151.0,219.0
239.0,283.0,156.0,227.0
233.0,283.0,162.0,234.0
232.0,297.0,158.0,229.0
211.0,314.0,205.0,199.0
209.0,323.0,204.0,198.0
209.0,322.0,204.0,198.0
216.0,320.0,216.0,199.0
211.0,319.0,222.0,205.0
212.0,333.0,215.0,198.0
203.0,319.0,229.0,211.0
202.0,327.0,227.0,209.0
202.0,327.0,227.0,209.0
201.0,331.0,226.0,208.0
201.0,334.0,226.0,208.0
200.0,335.0,225.0,208.0
202.0,336.0,224.0,207.0
205.0,337.0,222.0,204.0
205.0,337.0,222.0,204.0
195.0,343.0,266.0,203.0
196.0,351.0,261.0,199.0
199.0,352.0,257.0,196.0
201.0,356.0,252.0,192.0
205.0,356.0,252.0,193.0
205.0,356.0,252.0,193.0
208.0,353.0,254.0,194.0
204.0,353.0,287.0,199.0
209.0,352.0,292.0,202.0
215.0,352.0,298.0,207.0
217.0,357.0,292.0,202.0
217.0,357.0,292.0,202.0
220.0,358.0,289.0,201.0
221.0,361.0,286.0,198.0
223.0,327.0,298.0,233.0
226.0,327.0,298.0,233.0
228.0,326.0,306.0,239.0
228.0,325.0,306.0,240.0
231.0,326.0,309.0,242.0
235.0,326.0,308.0,241.0
238.0,328.0,303.0,237.0
241.0,329.0,301.0,235.0
243.0,329.0,300.0,234.0
243.0,329.0,300.0,234.0
246.0,329.0,296.0,231.0
248.0,328.0,294.0,230.0
247.0,327.0,294.0,230.0
247.0,326.0,295.0,231.0
246.0,325.0,296.0,231.0
246.0,325.0,296.0,231.0
244.0,324.0,297.0,232.0
243.0,323.0,298.0,233.0
241.0,323.0,313.0,234.0
240.0,322.0,313.0,234.0
238.0,322.0,314.0,235.0
238.0,322.0,314.0,234.0
237.0,321.0,314.0,234.0
237.0,320.0,313.0,234.0
236.0,320.0,314.0,235.0
235.0,319.0,314.0,234.0
234.0,318.0,314.0,234.0
234.0,318.0,313.0,234.0
234.0,318.0,313.0,234.0
233.0,317.0,313.0,234.0
232.0,316.0,315.0,235.0
232.0,316.0,314.0,234.0
231.0,315.0,314.0,235.0
230.0,315.0,313.0,234.0
230.0,315.0,314.0,235.0
230.0,313.0,314.0,235.0
229.0,313.0,314.0,235.0
228.0,312.0,314.0,235.0
226.0,312.0,314.0,234.0
226.0,312.0,314.0,234.0
226.0,311.0,314.0,234.0
227.0,310.0,312.0,234.0
227.0,310.0,311.0,232.0
226.0,310.0,311.0,232.0
223.0,309.0,313.0,234.0
223.0,309.0,313.0,234.0
221.0,308.0,313.0,234.0
223.0,308.0,311.0,232.0
221.0,307.0,312.0,233.0
219.0,306.0,312.0,233.0
217.0,306.0,312.0,234.0
216.0,306.0,313.0,234.0
219.0,305.0,309.0,231.0
212.0,305.0,312.0,233.0
213.0,304.0,312.0,233.0
211.0,303.0,312.0,233.0
209.0,302.0,312.0,234.0
208.0,303.0,312.0,233.0
209.0,302.0,313.0,234.0
207.0,301.0,313.0,234.0
206.0,300.0,312.0,233.0
204.0,300.0,313.0,234.0
203.0,299.0,313.0,234.0
202.0,298.0,314.0,234.0
203.0,298.0,311.0,233.0
198.0,298.0,312.0,233.0
198.0,297.0,313.0,234.0
196.0,296.0,312.0,233.0
196.0,295.0,312.0,234.0
196.0,295.0,312.0,234.0
195.0,294.0,312.0,233.0
195.0,293.0,311.0,233.0
193.0,293.0,312.0,233.0
191.0,292.0,312.0,234.0
190.0,291.0,314.0,235.0
190.0,291.0,314.0,235.0
188.0,290.0,333.0,235.0
187.0,289.0,340.0,235.0
186.0,288.0,346.0,235.0
185.0,288.0,344.0,235.0
183.0,287.0,357.0,235.0
183.0,287.0,354.0,235.0
182.0,286.0,363.0,235.0
180.0,285.0,369.0,235.0
179.0,284.0,367.0,235.0
177.0,283.0,383.0,234.0
201.0,308.0,358.0,193.0
201.0,308.0,358.0,193.0
208.0,307.0,362.0,195.0
222.0,307.0,360.0,194.0
229.0,306.0,365.0,197.0
237.0,306.0,371.0,200.0
246.0,306.0,371.0,200.0
246.0,306.0,370.0,200.0
256.0,305.0,375.0,202.0
267.0,304.0,375.0,202.0
278.0,302.0,377.0,203.0
290.0,300.0,375.0,202.0
302.0,298.0,370.0,199.0
302.0,298.0,370.0,199.0
313.0,298.0,363.0,196.0
324.0,298.0,357.0,193.0
335.0,299.0,352.0,190.0
345.0,299.0,347.0,187.0
356.0,300.0,337.0,182.0
356.0,300.0,337.0,182.0
365.0,300.0,329.0,177.0
373.0,300.0,323.0,174.0
379.0,299.0,319.0,172.0
382.0,299.0,313.0,169.0
384.0,301.0,309.0,166.0
384.0,301.0,309.0,166.0
383.0,301.0,307.0,165.0
380.0,300.0,306.0,165.0
375.0,298.0,308.0,166.0
371.0,297.0,309.0,166.0
366.0,295.0,311.0,168.0
366.0,295.0,311.0,168.0
360.0,294.0,311.0,168.0
355.0,293.0,313.0,169.0
351.0,292.0,314.0,170.0
346.0,290.0,317.0,171.0
342.0,288.0,318.0,171.0
342.0,288.0,318.0,171.0
338.0,287.0,319.0,172.0
334.0,285.0,322.0,174.0
331.0,284.0,326.0,175.0
328.0,283.0,330.0,178.0
327.0,281.0,334.0,180.0
327.0,281.0,334.0,180.0
327.0,281.0,339.0,183.0
334.0,280.0,336.0,181.0
346.0,281.0,332.0,179.0
358.0,282.0,328.0,177.0
370.0,282.0,323.0,174.0
370.0,282.0,323.0,174.0
384.0,283.0,317.0,171.0
398.0,284.0,309.0,166.0
412.0,286.0,302.0,163.0
426.0,287.0,294.0,159.0
440.0,290.0,287.0,154.0
440.0,290.0,287.0,154.0
453.0,291.0,280.0,151.0
460.0,291.0,282.0,152.0
469.0,291.0,282.0,152.0
477.0,290.0,283.0,153.0
485.0,288.0,282.0,152.0
485.0,288.0,283.0,152.0
491.0,287.0,283.0,186.0
493.0,285.0,291.0,191.0
506.0,286.0,278.0,183.0
511.0,286.0,279.0,183.0
512.0,284.0,288.0,189.0
512.0,284.0,309.0,189.0
517.0,284.0,311.0,190.0
523.0,285.0,312.0,191.0
521.0,284.0,330.0,202.0
517.0,284.0,368.0,215.0
511.0,283.0,371.0,217.0
533.0,283.0,349.0,217.0
526.0,282.0,383.0,219.0
519.0,281.0,386.0,221.0
512.0,281.0,389.0,223.0
570.0,274.0,338.0,215.0
577.0,281.0,338.0,215.0
577.0,281.0,338.0,215.0
570.0,281.0,341.0,217.0
563.0,282.0,341.0,217.0
625.0,283.0,307.0,207.0
628.0,290.0,310.0,197.0
636.0,282.0,310.0,193.0
630.0,282.0,311.0,186.0
665.0,263.0,280.0,221.0
687.0,263.0,255.0,207.0
694.0,268.0,249.0,194.0
692.0,251.0,248.0,211.0
704.0,250.0,216.0,223.0
678.0,245.0,237.0,216.0
673.0,245.0,232.0,227.0
664.0,258.0,239.0,206.0
649.0,261.0,239.0,206.0
636.0,264.0,239.0,206.0
713.0,251.0,165.0,165.0
713.0,251.0,165.0,165.0
716.0,246.0,165.0,165.0
712.0,243.0,168.0,168.0
703.0,247.0,168.0,168.0
696.0,252.0,168.0,168.0
689.0,256.0,168.0,168.0
689.0,256.0,168.0,168.0
715.0,254.0,127.0,163.0
712.0,258.0,127.0,163.0
711.0,263.0,127.0,163.0
670.0,252.0,134.0,160.0
672.0,257.0,134.0,161.0
672.0,257.0,134.0,161.0
636.0,259.0,149.0,148.0
641.0,264.0,149.0,148.0
581.0,270.0,201.0,135.0
557.0,271.0,205.0,133.0
526.0,267.0,222.0,127.0
526.0,267.0,222.0,127.0
499.0,268.0,231.0,130.0
444.0,280.0,262.0,134.0
403.0,287.0,280.0,127.0
344.0,278.0,295.0,136.0
313.0,283.0,284.0,120.0
309.0,277.0,287.0,134.0
280.0,284.0,268.0,136.0
235.0,281.0,322.0,147.0
198.0,290.0,330.0,148.0
179.0,301.0,316.0,137.0
159.0,299.0,308.0,134.0
159.0,299.0,308.0,134.0
136.0,299.0,290.0,126.0
114.0,294.0,288.0,125.0
105.0,291.0,267.0,116.0
93.0,299.0,264.0,115.0
81.0,302.0,258.0,112.0
81.0,302.0,258.0,112.0
68.0,299.0,254.0,110.0
57.0,291.0,259.0,112.0
45.0,290.0,261.0,113.0
33.0,287.0,259.0,112.0
25.0,292.0,257.0,112.0
25.0,292.0,257.0,112.0
18.0,308.0,248.0,108.0
4.0,319.0,256.0,111.0
-7.0,309.0,268.0,116.0
-14.0,300.0,271.0,117.0
-23.0,304.0,271.0,118.0
-23.0,304.0,271.0,118.0
-31.0,306.0,273.0,119.0
-37.0,319.0,272.0,118.0
-50.0,337.0,284.0,123.0
-50.0,337.0,284.0,123.0
-42.0,322.0,255.0,110.0
-42.0,322.0,255.0,110.0
-42.0,322.0,255.0,110.0
-42.0,322.0,255.0,110.0
-42.0,322.0,255.0,110.0
-42.0,322.0,255.0,110.0
-42.0,322.0,255.0,110.0
-42.0,322.0,255.0,110.0
-42.0,322.0,255.0,110.0
-42.0,322.0,255.0,110.0
0
0
0
0
0
0
0
0
0
0
0
0
0
0
0
0
0
0
0
0
0
0
0
0
0
0
0
0
0
0
0
0
0
0
0
0
0
0
0
0
0
0
0
0
0
0
0
0
0
0
0
0
0
0
0
0
0
0
0
0
0
0
0
0
0
0
0
0
0
0
0
0
0
0
0
0
0
0
0
0
0
0
0
0
0
0
0
0
0
0
0
0
0
0
0
0
0
0
0
0
275.0,363.0,127.0,97.0
302.0,370.0,137.0,101.0
320.0,382.0,157.0,93.0
324.0,397.0,177.0,86.0
349.0,400.0,197.0,85.0
339.0,393.0,211.0,92.0
370.0,394.0,206.0,103.0
376.0,394.0,240.0,102.0
399.0,394.0,253.0,111.0
400.0,390.0,260.0,113.0
417.0,391.0,277.0,108.0
433.0,398.0,254.0,93.0
423.0,384.0,289.0,123.0
0
0
0
0
0
0
0
0
585.0,387.0,244.0,107.0
595.0,401.0,231.0,97.0
595.0,401.0,231.0,97.0
591.0,401.0,240.0,89.0
579.0,386.0,252.0,105.0
590.0,385.0,241.0,110.0
583.0,383.0,251.0,100.0
607.0,385.0,225.0,101.0
607.0,385.0,225.0,101.0
586.0,382.0,225.0,101.0
565.0,379.0,225.0,101.0
544.0,376.0,225.0,101.0
564.0,373.0,185.0,101.0
556.0,369.0,172.0,101.0
551.0,369.0,177.0,101.0
545.0,366.0,160.0,101.0
528.0,363.0,157.0,101.0
521.0,359.0,142.0,101.0
498.0,356.0,144.0,101.0
509.0,352.0,113.0,101.0
0
0
0
0
0
0
0
0
0
0
0
0
0
0
0
694.0,444.0,305.0,144.0
697.0,437.0,306.0,147.0
673.0,418.0,337.0,171.0
673.0,418.0,337.0,171.0
683.0,426.0,330.0,169.0
762.0,448.0,260.0,156.0
777.0,452.0,262.0,143.0
785.0,449.0,264.0,144.0
789.0,443.0,261.0,143.0
789.0,443.0,261.0,143.0
794.0,437.0,257.0,141.0
793.0,428.0,258.0,141.0
793.0,420.0,257.0,140.0
789.0,417.0,257.0,140.0
785.0,419.0,257.0,141.0
785.0,419.0,258.0,141.0
785.0,422.0,254.0,139.0
786.0,423.0,252.0,138.0
779.0,415.0,259.0,141.0
777.0,404.0,255.0,139.0
775.0,396.0,251.0,137.0
775.0,396.0,251.0,137.0
767.0,385.0,251.0,137.0
762.0,377.0,246.0,134.0
763.0,372.0,242.0,132.0
769.0,373.0,241.0,132.0
777.0,379.0,236.0,129.0
777.0,379.0,236.0,129.0
786.0,382.0,243.0,133.0
792.0,380.0,250.0,137.0
799.0,373.0,252.0,138.0
806.0,366.0,252.0,138.0
813.0,361.0,253.0,138.0
813.0,361.0,253.0,138.0
819.0,357.0,250.0,137.0
825.0,353.0,250.0,136.0
835.0,353.0,245.0,134.0
842.0,356.0,244.0,133.0
851.0,362.0,243.0,132.0
851.0,362.0,243.0,132.0
853.0,362.0,249.0,136.0
853.0,358.0,256.0,140.0
854.0,352.0,260.0,142.0
857.0,349.0,256.0,140.0
857.0,347.0,255.0,139.0
857.0,347.0,255.0,139.0
857.0,347.0,249.0,136.0
856.0,346.0,246.0,134.0
851.0,344.0,244.0,133.0
848.0,343.0,239.0,130.0
845.0,343.0,237.0,129.0
845.0,343.0,237.0,129.0
840.0,344.0,234.0,128.0
832.0,344.0,234.0,128.0
822.0,341.0,234.0,128.0
810.0,338.0,236.0,129.0
799.0,336.0,239.0,130.0
799.0,336.0,239.0,130.0
787.0,335.0,238.0,130.0
777.0,334.0,238.0,130.0
766.0,332.0,237.0,129.0
755.0,331.0,237.0,130.0
742.0,330.0,239.0,130.0
742.0,330.0,239.0,130.0
729.0,328.0,240.0,131.0
719.0,327.0,199.0,131.0
709.0,327.0,198.0,130.0
699.0,326.0,196.0,129.0
692.0,326.0,192.0,126.0
690.0,325.0,197.0,130.0
684.0,325.0,191.0,126.0
677.0,323.0,190.0,125.0
669.0,323.0,188.0,124.0
662.0,322.0,186.0,123.0
656.0,322.0,184.0,121.0
656.0,322.0,184.0,121.0
651.0,322.0,182.0,120.0
630.0,328.0,199.0,142.0
623.0,329.0,198.0,141.0
616.0,329.0,197.0,141.0
609.0,329.0,198.0,141.0
609.0,328.0,202.0,144.0
601.0,330.0,200.0,143.0
595.0,331.0,198.0,142.0
589.0,332.0,196.0,140.0
583.0,332.0,195.0,139.0
577.0,332.0,193.0,138.0
577.0,332.0,193.0,138.0
571.0,332.0,192.0,137.0
566.0,333.0,191.0,136.0
561.0,333.0,189.0,135.0
556.0,333.0,188.0,134.0
552.0,333.0,186.0,133.0
552.0,333.0,186.0,133.0
548.0,333.0,186.0,133.0
544.0,333.0,185.0,132.0
542.0,332.0,184.0,132.0
539.0,331.0,184.0,131.0
536.0,331.0,184.0,131.0
536.0,331.0,184.0,131.0
535.0,330.0,184.0,131.0
533.0,329.0,184.0,131.0
532.0,327.0,184.0,131.0
532.0,326.0,184.0,131.0
532.0,325.0,184.0,131.0
532.0,325.0,184.0,131.0
533.0,324.0,184.0,131.0
534.0,322.0,184.0,131.0
535.0,320.0,184.0,131.0
537.0,319.0,184.0,131.0
539.0,317.0,184.0,132.0
539.0,317.0,184.0,132.0
542.0,315.0,185.0,132.0
545.0,314.0,185.0,132.0
549.0,312.0,185.0,132.0
553.0,309.0,185.0,132.0
558.0,308.0,185.0,132.0
558.0,308.0,185.0,132.0
563.0,305.0,185.0,132.0
570.0,304.0,184.0,131.0
577.0,302.0,182.0,130.0
586.0,301.0,180.0,128.0
594.0,300.0,178.0,127.0
594.0,300.0,178.0,127.0
603.0,299.0,175.0,125.0
614.0,298.0,172.0,123.0
624.0,297.0,170.0,121.0
639.0,296.0,165.0,118.0
651.0,296.0,162.0,115.0
651.0,295.0,162.0,115.0
664.0,294.0,159.0,114.0
652.0,253.0,182.0,153.0
664.0,252.0,181.0,152.0
674.0,249.0,182.0,153.0
685.0,247.0,182.0,153.0
685.0,247.0,182.0,153.0
696.0,245.0,182.0,153.0
708.0,243.0,182.0,153.0
699.0,240.0,146.0,154.0
710.0,237.0,147.0,155.0
721.0,235.0,148.0,156.0
721.0,235.0,148.0,156.0
733.0,234.0,147.0,155.0
745.0,232.0,147.0,155.0
755.0,231.0,146.0,154.0
765.0,229.0,146.0,154.0
774.0,228.0,146.0,154.0
774.0,228.0,146.0,154.0
782.0,227.0,146.0,154.0
790.0,225.0,146.0,154.0
797.0,224.0,146.0,154.0
790.0,223.0,145.0,153.0
795.0,221.0,145.0,153.0
795.0,221.0,146.0,154.0
800.0,220.0,146.0,154.0
804.0,219.0,145.0,153.0
808.0,217.0,146.0,154.0
811.0,216.0,146.0,154.0
813.0,215.0,146.0,154.0
813.0,215.0,146.0,154.0
815.0,214.0,146.0,154.0
817.0,213.0,146.0,154.0
818.0,212.0,146.0,154.0
819.0,212.0,146.0,154.0
819.0,211.0,146.0,154.0
819.0,211.0,146.0,154.0
819.0,210.0,146.0,154.0
819.0,210.0,146.0,154.0
818.0,209.0,145.0,153.0
818.0,208.0,145.0,153.0
816.0,208.0,145.0,153.0
816.0,208.0,145.0,153.0
815.0,207.0,145.0,153.0
814.0,207.0,145.0,153.0
812.0,206.0,145.0,153.0
811.0,206.0,146.0,154.0
810.0,205.0,146.0,154.0
810.0,205.0,146.0,154.0
809.0,205.0,145.0,153.0
808.0,205.0,145.0,153.0
808.0,205.0,145.0,153.0
807.0,205.0,145.0,153.0
806.0,205.0,145.0,153.0
806.0,205.0,145.0,153.0
806.0,205.0,145.0,153.0
805.0,205.0,145.0,153.0
805.0,205.0,146.0,154.0
805.0,206.0,146.0,154.0
804.0,206.0,146.0,154.0
804.0,206.0,146.0,154.0
804.0,206.0,146.0,154.0
804.0,207.0,146.0,154.0
803.0,207.0,146.0,154.0
803.0,208.0,146.0,154.0
803.0,209.0,146.0,154.0
803.0,209.0,146.0,154.0
802.0,209.0,146.0,154.0
802.0,211.0,145.0,153.0
802.0,211.0,146.0,154.0
802.0,213.0,146.0,154.0
802.0,214.0,146.0,154.0
802.0,214.0,146.0,154.0
802.0,215.0,146.0,154.0
802.0,216.0,145.0,153.0
802.0,217.0,145.0,153.0
802.0,219.0,145.0,153.0
802.0,220.0,145.0,153.0
802.0,220.0,145.0,153.0
802.0,222.0,146.0,154.0
802.0,224.0,145.0,153.0
802.0,225.0,145.0,153.0
803.0,227.0,145.0,153.0
803.0,229.0,145.0,153.0
803.0,229.0,145.0,153.0
803.0,231.0,145.0,153.0
804.0,233.0,145.0,153.0
804.0,235.0,145.0,153.0
804.0,237.0,145.0,153.0
804.0,240.0,145.0,153.0
804.0,240.0,145.0,153.0
805.0,242.0,145.0,153.0
805.0,245.0,145.0,153.0
805.0,247.0,146.0,154.0
805.0,250.0,146.0,154.0
805.0,253.0,146.0,154.0
805.0,253.0,146.0,154.0
805.0,255.0,146.0,154.0
805.0,258.0,145.0,153.0
805.0,261.0,145.0,153.0
804.0,264.0,145.0,153.0
804.0,268.0,145.0,153.0
804.0,268.0,145.0,153.0
803.0,271.0,145.0,153.0
803.0,275.0,145.0,152.0
802.0,278.0,145.0,153.0
801.0,282.0,145.0,153.0
800.0,285.0,146.0,154.0
800.0,285.0,146.0,154.0
799.0,289.0,146.0,154.0
798.0,293.0,147.0,155.0
797.0,297.0,147.0,155.0
796.0,301.0,147.0,155.0
793.0,305.0,148.0,157.0
793.0,305.0,148.0,157.0
792.0,310.0,149.0,157.0
790.0,314.0,148.0,156.0
788.0,319.0,148.0,156.0
773.0,333.0,183.0,150.0
771.0,337.0,182.0,149.0
771.0,337.0,182.0,149.0
769.0,342.0,181.0,148.0
767.0,345.0,183.0,150.0
766.0,352.0,175.0,143.0
764.0,357.0,172.0,141.0
762.0,362.0,170.0,139.0
762.0,362.0,170.0,139.0
757.0,366.0,171.0,140.0
751.0,370.0,172.0,141.0
745.0,374.0,173.0,142.0
741.0,377.0,171.0,140.0
731.0,379.0,176.0,144.0
731.0,379.0,176.0,144.0
720.0,380.0,183.0,150.0
710.0,381.0,188.0,154.0
701.0,384.0,192.0,158.0
694.0,386.0,195.0,160.0
687.0,388.0,197.0,162.0
687.0,388.0,197.0,162.0
681.0,389.0,198.0,162.0
674.0,390.0,200.0,164.0
667.0,392.0,202.0,166.0
660.0,393.0,206.0,169.0
651.0,393.0,210.0,172.0
651.0,393.0,210.0,172.0
642.0,394.0,213.0,174.0
634.0,394.0,214.0,176.0
625.0,395.0,216.0,177.0
619.0,396.0,215.0,176.0
612.0,396.0,218.0,179.0
612.0,396.0,218.0,179.0
605.0,395.0,221.0,181.0
623.0,393.0,224.0,152.0
622.0,393.0,221.0,150.0
610.0,389.0,232.0,157.0
613.0,390.0,230.0,156.0
613.0,390.0,230.0,156.0
616.0,391.0,224.0,152.0
619.0,392.0,218.0,148.0
621.0,394.0,212.0,144.0
622.0,395.0,210.0,142.0
622.0,394.0,207.0,140.0
622.0,394.0,207.0,140.0
618.0,391.0,210.0,142.0
616.0,387.0,210.0,142.0
613.0,384.0,211.0,143.0
607.0,381.0,216.0,146.0
602.0,380.0,219.0,149.0
602.0,380.0,219.0,148.0
596.0,378.0,222.0,151.0
589.0,378.0,223.0,151.0
536.0,389.0,261.0,136.0
530.0,386.0,262.0,136.0
522.0,383.0,264.0,137.0
522.0,383.0,264.0,137.0
513.0,380.0,267.0,139.0
504.0,377.0,270.0,141.0
496.0,376.0,270.0,141.0
487.0,374.0,270.0,141.0
478.0,371.0,269.0,140.0
478.0,371.0,269.0,140.0
468.0,367.0,268.0,140.0
456.0,364.0,270.0,140.0
443.0,364.0,272.0,142.0
431.0,366.0,275.0,143.0
420.0,364.0,276.0,144.0
420.0,364.0,276.0,144.0
410.0,359.0,276.0,144.0
398.0,353.0,276.0,144.0
385.0,350.0,278.0,145.0
371.0,351.0,283.0,147.0
359.0,353.0,286.0,149.0
359.0,353.0,286.0,149.0
349.0,350.0,285.0,149.0
340.0,346.0,283.0,148.0
330.0,341.0,281.0,147.0
320.0,341.0,280.0,146.0
310.0,344.0,281.0,147.0
310.0,344.0,281.0,147.0
303.0,344.0,282.0,147.0
297.0,341.0,280.0,146.0
293.0,335.0,278.0,145.0
289.0,331.0,276.0,144.0
283.0,332.0,275.0,143.0
283.0,332.0,275.0,143.0
279.0,335.0,277.0,144.0
273.0,337.0,279.0,145.0
271.0,333.0,275.0,143.0
272.0,328.0,270.0,141.0
276.0,326.0,267.0,139.0
276.0,326.0,267.0,139.0
286.0,329.0,269.0,140.0
296.0,332.0,268.0,139.0
308.0,331.0,263.0,137.0
320.0,326.0,259.0,135.0
334.0,321.0,254.0,132.0
334.0,321.0,254.0,132.0
344.0,320.0,254.0,132.0
357.0,324.0,252.0,131.0
372.0,328.0,249.0,130.0
389.0,328.0,244.0,127.0
406.0,323.0,240.0,125.0
406.0,323.0,240.0,125.0
422.0,318.0,234.0,122.0
435.0,319.0,232.0,121.0
448.0,325.0,230.0,120.0
457.0,328.0,231.0,121.0
467.0,327.0,231.0,120.0
467.0,327.0,231.0,120.0
476.0,322.0,229.0,119.0
484.0,319.0,227.0,118.0
490.0,320.0,228.0,119.0
495.0,325.0,224.0,117.0
501.0,329.0,219.0,114.0
501.0,329.0,219.0,114.0
508.0,327.0,215.0,112.0
514.0,326.0,209.0,109.0
516.0,327.0,207.0,108.0
517.0,334.0,205.0,107.0
515.0,340.0,208.0,108.0
515.0,340.0,208.0,108.0
516.0,343.0,210.0,109.0
516.0,340.0,211.0,110.0
515.0,337.0,211.0,110.0
514.0,338.0,212.0,111.0
511.0,345.0,215.0,112.0
511.0,345.0,215.0,112.0
510.0,352.0,215.0,112.0
506.0,356.0,216.0,112.0
496.0,354.0,221.0,115.0
490.0,354.0,223.0,116.0
486.0,360.0,222.0,116.0
486.0,360.0,222.0,116.0
483.0,367.0,220.0,114.0
483.0,367.0,220.0,114.0
483.0,367.0,220.0,114.0
352.0,349.0,242.0,127.0
357.0,353.0,241.0,127.0
357.0,353.0,241.0,127.0
364.0,356.0,240.0,126.0
369.0,359.0,242.0,127.0
375.0,362.0,242.0,127.0
380.0,364.0,242.0,127.0
385.0,367.0,242.0,127.0
385.0,367.0,242.0,127.0
390.0,369.0,242.0,127.0
367.0,370.0,216.0,122.0
346.0,361.0,235.0,130.0
352.0,363.0,235.0,130.0
357.0,364.0,235.0,130.0
357.0,364.0,235.0,130.0
362.0,366.0,235.0,130.0
368.0,370.0,183.0,96.0
374.0,371.0,183.0,96.0
379.0,372.0,183.0,96.0
385.0,372.0,183.0,96.0
385.0,372.0,183.0,96.0
391.0,372.0,183.0,96.0
398.0,373.0,183.0,96.0
399.0,368.0,106.0,82.0
405.0,368.0,106.0,82.0
0
0
0
0
0
0
0
0
0
0
0
0
0
0
0
0
0
0
0
0
0
0
0
0
0
0
0
0
0
0
0
0
0
0
0
0
0
0
0
0
0
0
0
0
0
0
0
0
0
0
0
0
0
0
0
0
0
0
0
0
0
0
0
0
0
0
0
0
0
0
0
0
0
0
0
0
0
0
0
0
0
2.0,322.0,50.0,66.0
2.0,330.0,55.0,63.0
7.0,332.0,56.0,64.0
0.0,329.0,95.0,78.0
0.0,329.0,95.0,78.0
1.0,331.0,95.0,78.0
2.0,334.0,95.0,78.0
3.0,336.0,95.0,78.0
0.0,355.0,162.0,92.0
2.0,357.0,162.0,92.0
2.0,357.0,162.0,92.0
4.0,358.0,162.0,92.0
6.0,359.0,162.0,92.0
0.0,357.0,258.0,110.0
3.0,358.0,258.0,110.0
6.0,359.0,258.0,110.0
6.0,359.0,258.0,110.0
10.0,359.0,258.0,110.0
13.0,360.0,258.0,110.0
16.0,362.0,316.0,117.0
19.0,362.0,316.0,117.0
23.0,362.0,316.0,117.0
23.0,362.0,316.0,117.0
32.0,362.0,397.0,124.0
35.0,362.0,397.0,124.0
38.0,361.0,397.0,124.0
41.0,361.0,397.0,124.0
168.0,348.0,292.0,126.0
168.0,348.0,292.0,126.0
170.0,347.0,292.0,126.0
172.0,347.0,292.0,126.0
207.0,368.0,302.0,108.0
208.0,367.0,302.0,108.0
210.0,366.0,302.0,108.0
234.0,376.0,262.0,93.0
235.0,375.0,262.0,93.0
235.0,374.0,262.0,93.0
235.0,373.0,262.0,93.0
235.0,372.0,262.0,93.0
235.0,371.0,262.0,93.0
235.0,371.0,262.0,93.0
265.0,358.0,258.0,89.0
278.0,356.0,263.0,84.0
271.0,330.0,263.0,106.0
262.0,324.0,279.0,116.0
294.0,329.0,244.0,106.0
290.0,343.0,248.0,100.0
259.0,328.0,277.0,108.0
274.0,335.0,270.0,102.0
272.0,334.0,270.0,102.0
269.0,332.0,270.0,102.0
266.0,331.0,270.0,102.0
266.0,331.0,270.0,102.0
263.0,330.0,270.0,102.0
260.0,328.0,270.0,102.0
257.0,327.0,270.0,102.0
253.0,326.0,270.0,102.0
250.0,324.0,270.0,102.0
250.0,324.0,270.0,102.0
247.0,323.0,270.0,102.0
243.0,322.0,270.0,102.0
239.0,320.0,270.0,102.0
236.0,319.0,270.0,102.0
233.0,317.0,270.0,102.0
233.0,317.0,270.0,102.0
231.0,316.0,270.0,102.0
228.0,314.0,270.0,102.0
227.0,313.0,270.0,102.0
225.0,311.0,270.0,102.0
224.0,309.0,270.0,102.0
224.0,309.0,270.0,102.0
223.0,308.0,270.0,102.0
222.0,306.0,270.0,102.0
222.0,304.0,270.0,102.0
222.0,302.0,270.0,102.0
222.0,300.0,270.0,102.0
222.0,300.0,270.0,102.0
223.0,299.0,270.0,102.0
223.0,297.0,270.0,102.0
224.0,295.0,270.0,102.0
225.0,293.0,270.0,102.0
226.0,292.0,270.0,102.0
226.0,292.0,270.0,102.0
227.0,290.0,270.0,102.0
229.0,289.0,270.0,102.0
230.0,287.0,270.0,102.0
231.0,286.0,270.0,102.0
231.0,284.0,270.0,102.0
249.0,295.0,288.0,105.0
250.0,294.0,288.0,105.0
250.0,292.0,288.0,105.0
251.0,291.0,288.0,105.0
251.0,290.0,288.0,105.0
251.0,289.0,288.0,105.0
251.0,289.0,288.0,105.0
251.0,287.0,288.0,105.0
290.0,290.0,283.0,128.0
290.0,289.0,283.0,128.0
290.0,288.0,283.0,128.0
290.0,287.0,283.0,128.0
348.0,272.0,229.0,129.0
347.0,271.0,230.0,130.0
347.0,270.0,229.0,129.0
415.0,288.0,171.0,114.0
414.0,286.0,173.0,115.0
429.0,273.0,154.0,125.0
429.0,273.0,154.0,125.0
435.0,271.0,156.0,139.0
412.0,257.0,176.0,142.0
441.0,253.0,153.0,149.0
441.0,251.0,154.0,150.0
439.0,252.0,153.0,149.0
439.0,252.0,153.0,149.0
438.0,252.0,153.0,149.0
437.0,252.0,153.0,149.0
436.0,252.0,153.0,149.0
434.0,239.0,161.0,162.0
433.0,239.0,162.0,163.0
433.0,239.0,162.0,163.0
432.0,239.0,161.0,162.0
430.0,240.0,161.0,162.0
429.0,240.0,161.0,162.0
428.0,241.0,161.0,162.0
427.0,237.0,174.0,167.0
427.0,237.0,174.0,167.0
426.0,238.0,175.0,168.0
424.0,239.0,175.0,168.0
423.0,239.0,179.0,172.0
422.0,241.0,174.0,167.0
420.0,242.0,174.0,167.0
420.0,242.0,174.0,167.0
436.0,247.0,174.0,167.0
435.0,248.0,174.0,167.0
433.0,250.0,174.0,167.0
431.0,275.0,191.0,144.0
430.0,277.0,191.0,144.0
430.0,277.0,191.0,144.0
428.0,279.0,191.0,144.0
426.0,281.0,191.0,144.0
424.0,282.0,191.0,144.0
423.0,284.0,208.0,144.0
422.0,286.0,208.0,144.0
422.0,286.0,208.0,144.0
420.0,287.0,208.0,144.0
418.0,289.0,208.0,144.0
416.0,290.0,208.0,144.0
459.0,289.0,208.0,144.0
458.0,290.0,208.0,144.0
460.0,287.0,216.0,150.0
456.0,291.0,208.0,144.0
454.0,292.0,208.0,144.0
452.0,294.0,208.0,144.0
503.0,316.0,210.0,202.0
502.0,317.0,210.0,202.0
502.0,317.0,210.0,202.0
540.0,317.0,192.0,244.0
538.0,318.0,192.0,244.0
572.0,337.0,192.0,244.0
570.0,337.0,192.0,244.0
595.0,342.0,192.0,244.0
595.0,342.0,192.0,244.0
593.0,415.0,205.0,141.0
591.0,415.0,205.0,141.0
589.0,414.0,206.0,141.0
639.0,415.0,205.0,141.0
636.0,414.0,206.0,141.0
663.0,414.0,186.0,141.0
662.0,413.0,187.0,142.0
659.0,412.0,188.0,142.0
715.0,415.0,188.0,143.0
728.0,413.0,186.0,141.0
741.0,412.0,184.0,140.0
741.0,412.0,184.0,140.0
751.0,412.0,182.0,139.0
760.0,414.0,182.0,139.0
771.0,417.0,178.0,135.0
780.0,417.0,175.0,133.0
787.0,416.0,174.0,132.0
787.0,416.0,174.0,132.0
794.0,414.0,173.0,131.0
801.0,413.0,173.0,131.0
806.0,411.0,173.0,132.0
809.0,409.0,174.0,132.0
812.0,406.0,174.0,133.0
812.0,406.0,175.0,133.0
813.0,404.0,177.0,134.0
814.0,401.0,179.0,136.0
820.0,399.0,182.0,138.0
822.0,397.0,181.0,138.0
823.0,396.0,227.0,138.0
823.0,396.0,227.0,138.0
823.0,395.0,228.0,138.0
824.0,394.0,226.0,138.0
825.0,391.0,224.0,136.0
827.0,386.0,223.0,136.0
830.0,382.0,224.0,136.0
830.0,382.0,224.0,136.0
831.0,380.0,229.0,139.0
831.0,381.0,235.0,143.0
831.0,380.0,242.0,147.0
833.0,376.0,242.0,147.0
839.0,368.0,243.0,148.0
839.0,368.0,243.0,148.0
845.0,360.0,245.0,149.0
852.0,358.0,246.0,149.0
859.0,360.0,246.0,150.0
866.0,361.0,246.0,150.0
875.0,358.0,244.0,148.0
875.0,358.0,244.0,148.0
883.0,349.0,241.0,147.0
893.0,341.0,240.0,146.0
901.0,338.0,244.0,148.0
909.0,339.0,249.0,151.0
915.0,339.0,253.0,154.0
915.0,339.0,253.0,154.0
922.0,335.0,254.0,154.0
931.0,327.0,251.0,152.0
939.0,320.0,250.0,152.0
946.0,319.0,250.0,152.0
952.0,321.0,251.0,153.0
952.0,321.0,251.0,153.0
958.0,320.0,254.0,154.0
964.0,315.0,252.0,153.0
971.0,309.0,252.0,153.0
977.0,304.0,252.0,153.0
983.0,305.0,254.0,154.0
983.0,305.0,254.0,154.0
987.0,307.0,260.0,158.0
992.0,307.0,261.0,159.0
997.0,303.0,260.0,158.0
1005.0,297.0,256.0,156.0
1011.0,294.0,258.0,157.0
1011.0,294.0,258.0,157.0
1018.0,297.0,257.0,157.0
1022.0,302.0,258.0,157.0
1028.0,303.0,257.0,156.0
1033.0,299.0,254.0,154.0
1039.0,295.0,251.0,152.0
1039.0,295.0,251.0,152.0
1045.0,293.0,252.0,153.0
1048.0,296.0,255.0,155.0
1051.0,300.0,259.0,157.0
1053.0,301.0,260.0,158.0
1056.0,298.0,259.0,157.0
1056.0,298.0,259.0,157.0
1058.0,294.0,259.0,157.0
1062.0,295.0,257.0,156.0
1069.0,301.0,255.0,155.0
1079.0,308.0,248.0,151.0
1084.0,311.0,243.0,148.0
1084.0,311.0,243.0,148.0
1079.0,309.0,240.0,146.0
1071.0,305.0,238.0,145.0
1054.0,305.0,237.0,144.0
1022.0,309.0,237.0,144.0
982.0,312.0,237.0,144.0
982.0,312.0,237.0,144.0
945.0,314.0,238.0,145.0
913.0,313.0,237.0,144.0
883.0,311.0,238.0,145.0
858.0,311.0,232.0,141.0
834.0,314.0,226.0,138.0
834.0,314.0,226.0,138.0
810.0,317.0,227.0,138.0
787.0,319.0,221.0,135.0
766.0,320.0,213.0,130.0
745.0,320.0,204.0,124.0
727.0,317.0,202.0,123.0
727.0,317.0,202.0,123.0
709.0,316.0,204.0,124.0
692.0,320.0,206.0,125.0
678.0,321.0,200.0,122.0
663.0,318.0,162.0,125.0
648.0,318.0,156.0,121.0
648.0,318.0,156.0,120.0
630.0,316.0,151.0,117.0
613.0,313.0,150.0,116.0
598.0,312.0,146.0,112.0
587.0,312.0,138.0,107.0
584.0,311.0,134.0,103.0
584.0,311.0,134.0,103.0
584.0,307.0,133.0,103.0
585.0,304.0,129.0,100.0
584.0,303.0,124.0,96.0
584.0,302.0,119.0,92.0
583.0,300.0,117.0,90.0
583.0,300.0,117.0,90.0
583.0,297.0,114.0,88.0
572.0,284.0,131.0,149.0
573.0,281.0,131.0,148.0
575.0,278.0,130.0,148.0
577.0,276.0,130.0,148.0
577.0,276.0,130.0,147.0
579.0,273.0,130.0,147.0
583.0,270.0,130.0,148.0
587.0,268.0,130.0,148.0
592.0,265.0,130.0,148.0
597.0,264.0,130.0,148.0
597.0,264.0,131.0,148.0
602.0,262.0,131.0,148.0
607.0,260.0,130.0,148.0
613.0,258.0,130.0,148.0
618.0,257.0,130.0,148.0
623.0,256.0,131.0,149.0
623.0,256.0,131.0,149.0
629.0,255.0,130.0,148.0
634.0,253.0,130.0,148.0
638.0,253.0,131.0,149.0
644.0,252.0,129.0,147.0
648.0,251.0,130.0,148.0
648.0,252.0,130.0,148.0
652.0,251.0,130.0,148.0
655.0,251.0,131.0,149.0
659.0,251.0,130.0,148.0
662.0,251.0,130.0,148.0
665.0,251.0,131.0,149.0
665.0,251.0,131.0,149.0
667.0,252.0,130.0,147.0
669.0,252.0,131.0,149.0
671.0,252.0,131.0,149.0
674.0,253.0,130.0,148.0
674.0,254.0,131.0,149.0
674.0,254.0,131.0,149.0
676.0,255.0,131.0,149.0
677.0,256.0,131.0,149.0
678.0,257.0,132.0,150.0
679.0,258.0,132.0,150.0
680.0,260.0,131.0,150.0
680.0,260.0,131.0,149.0
681.0,261.0,131.0,149.0
682.0,263.0,130.0,148.0
682.0,265.0,131.0,148.0
682.0,267.0,132.0,150.0
682.0,269.0,132.0,150.0
682.0,269.0,132.0,150.0
682.0,272.0,132.0,150.0
683.0,274.0,132.0,150.0
682.0,277.0,132.0,150.0
682.0,279.0,132.0,150.0
681.0,282.0,133.0,151.0
681.0,282.0,133.0,151.0
679.0,285.0,133.0,152.0
679.0,289.0,133.0,152.0
678.0,292.0,134.0,152.0
677.0,295.0,134.0,153.0
676.0,298.0,134.0,153.0
676.0,298.0,134.0,153.0
674.0,301.0,134.0,153.0
673.0,304.0,134.0,153.0
671.0,306.0,134.0,153.0
669.0,309.0,135.0,153.0
667.0,311.0,134.0,153.0
667.0,311.0,134.0,153.0
666.0,314.0,134.0,153.0
663.0,316.0,134.0,153.0
662.0,317.0,134.0,153.0
660.0,319.0,134.0,152.0
658.0,321.0,134.0,152.0
658.0,321.0,134.0,152.0
656.0,323.0,134.0,152.0
655.0,324.0,134.0,152.0
653.0,325.0,133.0,152.0
652.0,326.0,134.0,152.0
651.0,327.0,133.0,152.0
651.0,327.0,133.0,152.0
650.0,328.0,133.0,152.0
650.0,328.0,133.0,151.0
650.0,329.0,133.0,151.0
650.0,329.0,133.0,151.0
651.0,329.0,133.0,151.0
651.0,329.0,133.0,151.0
652.0,329.0,133.0,151.0
654.0,328.0,133.0,151.0
656.0,328.0,133.0,151.0
658.0,328.0,133.0,151.0
661.0,327.0,133.0,151.0
661.0,327.0,133.0,151.0
663.0,327.0,133.0,151.0
667.0,326.0,133.0,151.0
670.0,325.0,133.0,151.0
673.0,324.0,133.0,151.0
675.0,322.0,133.0,151.0
675.0,322.0,133.0,151.0
677.0,321.0,133.0,151.0
679.0,320.0,132.0,151.0
680.0,318.0,132.0,151.0
681.0,316.0,133.0,151.0
681.0,314.0,133.0,151.0
681.0,314.0,133.0,151.0
680.0,313.0,133.0,151.0
679.0,311.0,132.0,151.0
677.0,309.0,133.0,151.0
675.0,307.0,133.0,151.0
671.0,305.0,133.0,151.0
671.0,305.0,133.0,151.0
668.0,303.0,133.0,151.0
664.0,301.0,133.0,151.0
658.0,299.0,133.0,151.0
654.0,298.0,133.0,151.0
649.0,296.0,133.0,151.0
649.0,296.0,133.0,151.0
644.0,294.0,133.0,151.0
640.0,292.0,133.0,151.0
636.0,290.0,133.0,151.0
632.0,288.0,133.0,151.0
629.0,287.0,133.0,151.0
629.0,287.0,133.0,151.0
626.0,285.0,133.0,151.0
623.0,284.0,132.0,151.0
621.0,283.0,132.0,151.0
619.0,282.0,132.0,150.0
617.0,281.0,132.0,150.0
617.0,281.0,132.0,150.0
616.0,281.0,132.0,150.0
615.0,280.0,132.0,151.0
615.0,280.0,132.0,150.0
615.0,280.0,132.0,150.0
615.0,280.0,132.0,150.0
615.0,280.0,132.0,150.0
616.0,280.0,132.0,150.0
617.0,280.0,132.0,150.0
618.0,280.0,132.0,150.0
619.0,280.0,132.0,150.0
621.0,281.0,132.0,150.0
621.0,281.0,132.0,150.0
623.0,281.0,132.0,150.0
625.0,281.0,132.0,150.0
626.0,281.0,132.0,150.0
629.0,282.0,132.0,150.0
631.0,282.0,132.0,150.0
631.0,282.0,132.0,150.0
634.0,282.0,132.0,150.0
636.0,282.0,132.0,150.0
639.0,282.0,132.0,150.0
642.0,282.0,132.0,150.0
645.0,281.0,132.0,150.0
645.0,281.0,132.0,150.0
648.0,281.0,132.0,150.0
668.0,348.0,66.0,70.0
672.0,348.0,66.0,70.0
675.0,347.0,66.0,70.0
679.0,347.0,66.0,70.0
679.0,347.0,66.0,70.0
683.0,347.0,66.0,70.0
687.0,346.0,66.0,70.0
691.0,346.0,66.0,70.0
696.0,346.0,65.0,69.0
701.0,345.0,70.0,74.0
700.0,345.0,66.0,70.0
705.0,345.0,66.0,70.0
710.0,345.0,66.0,70.0
715.0,344.0,66.0,70.0
720.0,343.0,66.0,70.0
726.0,343.0,66.0,70.0
726.0,343.0,66.0,70.0
732.0,342.0,66.0,70.0
737.0,342.0,66.0,70.0
742.0,341.0,66.0,70.0
747.0,340.0,66.0,70.0
753.0,339.0,66.0,70.0
753.0,339.0,66.0,70.0
757.0,338.0,66.0,70.0
762.0,337.0,66.0,70.0
766.0,336.0,66.0,70.0
770.0,335.0,66.0,70.0
775.0,334.0,65.0,69.0
774.0,334.0,66.0,70.0
778.0,333.0,66.0,70.0
782.0,332.0,66.0,69.0
785.0,331.0,66.0,70.0
788.0,330.0,66.0,70.0
792.0,329.0,66.0,70.0
792.0,329.0,66.0,70.0
795.0,328.0,66.0,70.0
798.0,327.0,66.0,70.0
801.0,326.0,66.0,70.0
804.0,325.0,66.0,70.0
807.0,324.0,66.0,70.0
806.0,324.0,66.0,70.0
810.0,324.0,65.0,69.0
813.0,323.0,65.0,69.0
814.0,322.0,66.0,70.0
817.0,321.0,66.0,70.0
819.0,321.0,66.0,70.0
819.0,321.0,66.0,70.0
822.0,321.0,66.0,70.0
824.0,320.0,66.0,70.0
825.0,319.0,66.0,70.0
827.0,319.0,66.0,69.0
829.0,319.0,66.0,70.0
829.0,319.0,66.0,70.0
831.0,319.0,65.0,69.0
831.0,318.0,66.0,70.0
833.0,318.0,66.0,70.0
834.0,318.0,66.0,70.0
835.0,318.0,66.0,70.0
835.0,318.0,66.0,70.0
836.0,318.0,66.0,70.0
837.0,318.0,66.0,70.0
837.0,317.0,68.0,72.0
837.0,317.0,68.0,72.0
838.0,317.0,68.0,72.0
838.0,317.0,68.0,72.0
838.0,317.0,69.0,73.0
838.0,317.0,69.0,73.0
838.0,317.0,70.0,74.0
840.0,319.0,67.0,72.0
840.0,320.0,67.0,71.0
838.0,318.0,70.0,74.0
838.0,319.0,69.0,74.0
840.0,321.0,67.0,71.0
837.0,320.0,70.0,74.0
838.0,322.0,68.0,72.0
836.0,321.0,71.0,75.0
836.0,321.0,71.0,75.0
837.0,323.0,68.0,72.0
834.0,322.0,71.0,75.0
832.0,323.0,71.0,75.0
830.0,324.0,71.0,75.0
831.0,327.0,68.0,72.0
829.0,325.0,70.0,74.0
828.0,328.0,68.0,72.0
823.0,325.0,72.0,77.0
820.0,327.0,72.0,76.0
817.0,329.0,70.0,74.0
813.0,330.0,70.0,74.0
814.0,331.0,69.0,74.0
810.0,333.0,68.0,72.0
805.0,333.0,69.0,74.0
799.0,332.0,71.0,75.0
794.0,333.0,71.0,75.0
789.0,334.0,71.0,75.0
790.0,335.0,69.0,73.0
784.0,337.0,69.0,73.0
778.0,338.0,69.0,73.0
772.0,338.0,69.0,74.0
766.0,339.0,70.0,74.0
759.0,340.0,70.0,74.0
759.0,340.0,70.0,74.0
753.0,341.0,71.0,75.0
747.0,342.0,70.0,75.0
740.0,343.0,70.0,75.0
734.0,344.0,70.0,75.0
728.0,346.0,68.0,72.0
728.0,344.0,70.0,75.0
721.0,345.0,71.0,75.0
715.0,345.0,71.0,76.0
710.0,345.0,72.0,76.0
703.0,346.0,72.0,77.0
698.0,347.0,72.0,76.0
698.0,347.0,72.0,76.0
693.0,364.0,71.0,58.0
689.0,366.0,69.0,57.0
689.0,369.0,65.0,53.0
690.0,372.0,84.0,52.0
693.0,374.0,81.0,50.0
696.0,367.0,95.0,57.0
709.0,368.0,92.0,55.0
710.0,368.0,106.0,63.0
716.0,365.0,112.0,67.0
733.0,369.0,98.0,59.0
732.0,369.0,124.0,67.0
732.0,369.0,124.0,67.0
753.0,371.0,117.0,63.0
765.0,369.0,125.0,67.0
785.0,371.0,129.0,70.0
804.0,374.0,137.0,74.0
826.0,377.0,145.0,78.0
826.0,377.0,145.0,78.0
861.0,382.0,142.0,77.0
878.0,379.0,158.0,83.0
897.0,381.0,180.0,81.0
936.0,385.0,175.0,79.0
954.0,381.0,207.0,79.0
954.0,381.0,207.0,79.0
994.0,377.0,218.0,83.0
1049.0,353.0,208.0,127.0
